NAME : portgen-18-53
COMMENT : portgen N=18, seed=53
TYPE : TSP
DIMENSION : 18
EDGE_WEIGHT_TYPE : EUC_2D
NODE_COORD_SECTION
1 982100 143614
2 614945 884640
3 890314 17758
4 449749 65601
5 541139 294054
6 825136 599454
7 490738 158410
8 778136 834088
9 401987 320785
10 26763 268165
11 707996 48306
12 230710 600237
13 300704 299492
14 908364 742666
15 697210 18616
16 921418 612714
17 166295 515463
18 400727 285579
